(declare-fun temp682_1 () (_ BitVec 64))
(declare-fun var89147 () (_ BitVec 64))
(declare-fun k!0 () Bool)
(declare-fun ARGNAME_source_NAMEEND_LEN () (_ BitVec 64))
(declare-fun ARGNAME_destination_NAMEEND_LEN () (_ BitVec 64))
(declare-fun temp682_3 () (_ BitVec 64))
(declare-fun temp682_2 () (_ BitVec 64))
(declare-fun temp682_4 () (_ BitVec 64))
(declare-fun var201290 () (_ BitVec 64))
(declare-fun var201292 () (_ BitVec 64))
(declare-fun temp682_5 () (_ BitVec 64))
(declare-fun var461075 () (_ BitVec 64))
(declare-fun temp682_7 () (_ BitVec 64))
(declare-fun temp682_6 () (_ BitVec 64))
(declare-fun temp682_8 () (_ BitVec 64))
(declare-fun var856650 () (_ BitVec 64))
(declare-fun var856652 () (_ BitVec 64))
(declare-fun temp682_9 () (_ BitVec 64))
(declare-fun var1116435 () (_ BitVec 64))
(declare-fun temp682_11 () (_ BitVec 64))
(declare-fun temp682_10 () (_ BitVec 64))
(declare-fun var1577925 () (_ BitVec 64))
(declare-fun temp682_12 () (_ BitVec 64))
(declare-fun temp682_13 () (_ BitVec 64))
(declare-fun var1643466 () (_ BitVec 64))
(declare-fun temp682_15 () (_ BitVec 64))
(declare-fun temp682_14 () (_ BitVec 64))
(declare-fun var2298821 () (_ BitVec 64))
(declare-fun temp682_16 () (_ BitVec 64))
(declare-fun temp682_17 () (_ BitVec 64))
(declare-fun var2364362 () (_ BitVec 64))
(declare-fun temp682_18 () (_ BitVec 64))
(declare-fun var3019338 () (_ BitVec 64))
(declare-fun var3019340 () (_ BitVec 64))
(declare-fun temp682_19 () (_ BitVec 64))
(declare-fun var4461130 () (_ BitVec 64))
(declare-fun var4461132 () (_ BitVec 64))
(declare-fun temp682_20 () (_ BitVec 64))
(declare-fun ARGNAME_input_NAMEEND_DIM () (_ BitVec 64))
(declare-fun var89269 () (_ BitVec 64))
(declare-fun temp682_21 () (_ BitVec 64))
(declare-fun temp682_23 () (_ BitVec 64))
(declare-fun temp682_22 () (_ BitVec 64))
(declare-fun temp682_24 () (_ BitVec 64))
(declare-fun var5837386 () (_ BitVec 64))
(declare-fun var5837388 () (_ BitVec 64))
(declare-fun temp682_25 () (_ BitVec 64))
(declare-fun var6097171 () (_ BitVec 64))
(declare-fun temp682_27 () (_ BitVec 64))
(declare-fun temp682_26 () (_ BitVec 64))
(declare-fun temp682_28 () (_ BitVec 64))
(declare-fun var6492746 () (_ BitVec 64))
(declare-fun var6492748 () (_ BitVec 64))
(declare-fun temp682_30 () (_ BitVec 64))
(declare-fun temp682_29 () (_ BitVec 64))
(declare-fun temp682_31 () (_ BitVec 64))
(declare-fun var7737930 () (_ BitVec 64))
(declare-fun var7737932 () (_ BitVec 64))
(declare-fun temp682_33 () (_ BitVec 64))
(declare-fun temp682_32 () (_ BitVec 64))
(declare-fun var9180101 () (_ BitVec 64))
(declare-fun temp682_34 () (_ BitVec 64))
(declare-fun temp682_35 () (_ BitVec 64))
(declare-fun var9245642 () (_ BitVec 64))
(declare-fun temp682_37 () (_ BitVec 64))
(declare-fun temp682_36 () (_ BitVec 64))
(declare-fun temp682_39 () (_ BitVec 64))
(declare-fun temp682_38 () (_ BitVec 64))
(declare-fun var89398 () (_ BitVec 64))
(declare-fun var10161017 () (_ BitVec 64))
(declare-fun temp682_41 () (_ BitVec 64))
(declare-fun temp682_40 () (_ BitVec 64))
(declare-fun var10227009 () (_ BitVec 64))
(declare-fun var10227010 () (_ BitVec 64))
(declare-fun temp682_42 () (_ BitVec 64))
(declare-fun temp682_43 () (_ BitVec 64))
(declare-fun var10292551 () (_ BitVec 64))
(declare-fun var10358098 () (_ BitVec 64))
(declare-fun var10161037 () (_ BitVec 64))
(assert (= var89147
   (ite (= ARGNAME_source_NAMEEND_LEN ARGNAME_destination_NAMEEND_LEN)
        #x0000000000000001
        #x0000000000000000)))
(assert (= temp682_1 #x0000000000000001))
(assert (= var89147 temp682_1))
(assert (= temp682_3 #x0000000000000000))
(assert (= temp682_2 temp682_3))
(assert (= temp682_4 #x0000000000000005))
(assert (= var201290 temp682_4))
(assert (= var201292 var201290))
(assert (= temp682_5 #x0000000000000000))
(assert (= var461075 temp682_5))
(assert (= temp682_7 #x0000000000000000))
(assert (= temp682_6 temp682_7))
(assert (= temp682_8 #x0000000000000005))
(assert (= var856650 temp682_8))
(assert (= var856652 var856650))
(assert (= temp682_9 #x0000000000000000))
(assert (= var1116435 temp682_9))
(assert (= temp682_11 #x0000000000000000))
(assert (= temp682_10 temp682_11))
(assert (= var1577925
   (ite (bvslt temp682_10 ARGNAME_source_NAMEEND_LEN)
        #x0000000000000001
        #x0000000000000000)))
(assert (= temp682_12
   (ite (= var1577925 #x0000000000000001) ARGNAME_source_NAMEEND_LEN temp682_10)))
(assert (= temp682_13 #x0000000000000000))
(assert (= var1643466 temp682_13))
(assert (= temp682_15 #x0000000000000000))
(assert (= temp682_14 temp682_15))
(assert (= var2298821
   (ite (bvslt temp682_14 ARGNAME_destination_NAMEEND_LEN)
        #x0000000000000001
        #x0000000000000000)))
(assert (= temp682_16
   (ite (= var2298821 #x0000000000000001)
        ARGNAME_destination_NAMEEND_LEN
        temp682_14)))
(assert (= temp682_17 #x0000000000000000))
(assert (= var2364362 temp682_17))
(assert (= temp682_18 #x0000000000000005))
(assert (= var3019338 temp682_18))
(assert (= var3019340 var3019338))
(assert (= temp682_19 #x0000000000000005))
(assert (= var4461130 temp682_19))
(assert (= var4461132 var4461130))
(assert (= temp682_20 #x0000000000000000))
(assert (= var89269
   (ite (= ARGNAME_input_NAMEEND_DIM temp682_20)
        #x0000000000000001
        #x0000000000000000)))
(assert (= temp682_21 #x0000000000000000))
(assert (= var89269 temp682_21))
(assert (= temp682_23 #x0000000000000000))
(assert (= temp682_22 temp682_23))
(assert (= temp682_24 #x0000000000000005))
(assert (= var5837386 temp682_24))
(assert (= var5837388 var5837386))
(assert (= temp682_25 #x0000000000000000))
(assert (= var6097171 temp682_25))
(assert (= temp682_27 #x0000000000000000))
(assert (= temp682_26 temp682_27))
(assert (= temp682_28 #x0000000000000005))
(assert (= var6492746 temp682_28))
(assert (= var6492748 var6492746))
(assert (= temp682_30 #x0000000000000000))
(assert (= temp682_29 temp682_30))
(assert (= temp682_31 #x0000000000000005))
(assert (= var7737930 temp682_31))
(assert (= var7737932 var7737930))
(assert (= temp682_33 #x0000000000000000))
(assert (= temp682_32 temp682_33))
(assert (= var9180101
   (ite (bvslt temp682_32 ARGNAME_source_NAMEEND_LEN)
        #x0000000000000001
        #x0000000000000000)))
(assert (= temp682_34
   (ite (= var9180101 #x0000000000000001) ARGNAME_source_NAMEEND_LEN temp682_32)))
(assert (= temp682_35 #x0000000000000000))
(assert (= var9245642 temp682_35))
(assert (= temp682_37 #xffffffffffffffff))
(assert (= temp682_36 temp682_37))
(assert (= temp682_39 #xffffffffffffffff))
(assert (= temp682_38 temp682_39))
(assert (= var89398 (bvsub ARGNAME_input_NAMEEND_DIM ARGNAME_source_NAMEEND_LEN)))
(assert (= var10161017 var89398))
(assert (= temp682_41 #x0000000000000000))
(assert (= temp682_40 temp682_41))
(assert (= var10227009 var10161017))
(assert (= var10227010
   (ite (bvslt temp682_40 var10227009) #x0000000000000001 #x0000000000000000)))
(assert (= temp682_42 (ite (= var10227010 #x0000000000000001) var10161017 temp682_40)))
(assert (= temp682_43 #x0000000000000000))
(assert (= var10292551 temp682_43))
(assert (= var10358098 var10292551))
(assert (= var10161037 var10358098))
(model-add temp682_1 () (_ BitVec 64) #x0000000000000001)
(model-add var89147 () (_ BitVec 64) #x0000000000000001)
(model-del k!0)
(model-add ARGNAME_source_NAMEEND_LEN
           ()
           (_ BitVec 64)
           (ite k!0
                ARGNAME_destination_NAMEEND_LEN
                (bvnot ARGNAME_destination_NAMEEND_LEN)))




